param set_len = 44;
param target_sum = 11429849226;
param values := [1] 131535298 [2] 747675243 [3] 246213048 [4] 399046065 [5] 512181641 [6] 423541279 [7] 946020105 [8] 1021361591 [9] 917429019 [10] 349044610 [11] 617681295 [12] 449010207 [13] 46552438 [14] 334279180 [15] 76328074 [16] 267243190 [17] 620684723 [18] 120840855 [19] 852810369 [20] 890127079 [21] 608448780 [22] 337283249 [23] 27456792 [24] 838980690 [25] 1017617113 [26] 160747086 [27] 123213923 [28] 119541844 [29] 410959541 [30] 961896948 [31] 480409887 [32] 36716335 [33] 141654482 [34] 532649580 [35] 390431723 [36] 527810281 [37] 1059842037 [38] 290343938 [39] 681565232 [40] 559263346 [41] 584874657 [42] 825647154 [43] 442710320 [44] 470445684 ;
